{'code': [3, 6, 16, 15, 15, 0, 17, 10, 5, 11, 10, 7, 19, 5, 18, 16, 16, 19, 14, 14, 8, 3, 13, 18, 1,
 6, 10, 10, 1, 3, 5, 14, 15, 19, 4, 6, 5, 0, 6, 3, 19, 13, 7, 16, 17, 3, 16, 15, 8, 11, 9, 4, 17, 17
, 0, 7, 12, 5, 10, 1, 10, 14, 4, 2, 12, 3, 19, 4, 9, 9, 12, 11, 4, 14, 8, 10, 4, 12, 0, 13, 2, 2, 13
, 18, 19, 19, 2, 14, 12, 14, 7, 9, 0, 1, 19, 14, 13, 12, 0, 7, 4, 6, 8, 2, 4, 2, 9, 4, 1, 8, 13, 17,
 1, 16, 9, 2, 15, 15, 14, 13, 18, 3, 8, 15, 17, 12, 19, 0, 16, 9, 0, 8, 2, 1, 5, 12, 12, 9, 6, 8, 17
, 14, 3, 6, 11, 13, 18, 15, 17, 15, 8, 11, 16, 1, 15, 11, 19, 7, 11, 0, 15, 4, 16, 7, 6, 11, 7, 17, 
9, 10, 7, 16, 0, 7, 16, 5, 3, 18, 16, 12, 7, 15, 6, 9, 1, 11, 15, 11, 9, 13, 4, 4, 2, 3, 8, 1, 15, 1
8, 1, 7, 0, 3, 8, 6, 5, 5, 19, 14, 1, 6, 18, 18, 16, 18, 2, 12, 0, 13, 6, 5, 18, 17, 10, 2, 6, 14, 1
0, 9, 18, 19, 18, 4, 11, 6, 7, 1, 19, 17, 5, 4], 'route': None, 'mac': [[1, 7, 7, 0, 9, 8, 6, 0, 8, 
3, 1, 6], [7, 4, 1, 4, 2, 0, 6, 4, 6, 0, 6, 3, 6], [6, 4, 9, 1, 3, 3, 0, 0, 4, 2, 2], [0, 4, 0, 7, 3
, 7, 2, 9, 2, 6, 0], [7, 3, 4, 4, 2, 1, 6, 7, 4, 1, 6, 4, 9, 0], [9, 9, 0, 2, 4, 6, 7, 7, 1, 6, 8], 
[7, 7, 4, 3, 0, 1, 1, 4, 6, 0, 5, 5, 3, 9], [0, 9, 4, 6, 8, 9, 5, 1, 5, 8, 1, 3, 4], [7, 1, 0, 3, 3,
 6, 1, 8, 8, 1, 7], [3, 0, 2, 9, 8, 6, 4, 2, 1, 2, 5, 0], [8, 4, 5, 3, 0, 4, 6, 2, 0, 3], [4, 8, 3, 
8, 5, 6, 1, 7, 8, 4, 9], [1, 2, 8, 4, 1, 3, 1, 7, 0, 0, 6], [2, 0, 9, 1, 6, 0, 3, 3, 3, 2], [0, 3, 1
, 5, 4, 8, 1, 9, 3, 2, 1, 5], [7, 0, 2, 8, 7, 6, 6, 1, 5, 1, 3, 4, 0, 4], [1, 8, 6, 7, 4, 4, 0, 5, 1
, 9, 2, 2, 0], [5, 3, 4, 4, 2, 2, 8, 0, 1, 7, 5], [2, 1, 6, 9, 1, 0, 0, 6, 9, 4, 1, 6, 4], [3, 6, 6,
 2, 4, 0, 4, 0, 7, 8, 9, 1, 1]], 'wok': None}
